
%FILE DATA:	Soccer Computational Problem for MiniZinc Models	%
%AUTHOR:	Jack Wall	%
%CONTACT:  	116397063@umail.ucc.ie			%
%LAST UPDATE:	03/09/2020, 15:15:29						%
%DESCRIPTION: 	120 games played with 12 games left				%


n=12; %number of teams

%Games to play
games=[|5,4|1,5|3,1|9,8|9,7|4,9|10,4|12,11|12,8|4,3|3,4|8,2|];

%Initial points
iPoints=[35,28,23,22,33,28,23,25,24,32,27,21];

%POSITION CONSTRAINTS
% [|teamID, operator, position|...]
% operators index:
%  1 for =  operator
%  2 for >  operator
%  3 for >= operator
%  4 for <  operator
%  5 for <= operator
positionConstraints=[|1,5,1|5,2,1|10,3,3|4,5,4|];